6528
0,97,102,81,94,106,4,99,142,96,123,6,83,29,7,88,95,34,92,51,125,32,91,53,45,89,24,140,82,55,145,25,74,17,141,84,131,64,54,57,49,136,134,85,80,28,107,69,101,113,98,18,1,36,5,27,8,41,39,117,68,35,60,10,147,16,65,59,129,126,38,56,139,116,40,100,115,11,23,52,138,119,46,109,19,50,42,66,31,37,22,48,146,143,128,26,30,122,73,12,105,90,118,67,127,44,3,103,21,61,148,124,20,149,114,70,43,63,111,135,144,71,79,13,121,76,130,108,137,133,104,110,15,58,132,14,77,78,120,87,93,9,112,2,62,47,72,75,33,86,0
